(set-logic ALL)
(set-option :produce-models true)
(declare-sort BoundSet 0)
(declare-sort UnboundSet 0)
(set-option :finite-model-find true)
(declare-fun IsKeyTermOrPhrase (BoundSet) Bool)
(declare-fun IsInArgument (BoundSet BoundSet) Bool)
(declare-fun IsAmbiguous (BoundSet) Bool)
(declare-fun IsFallacy (BoundSet) Bool)
(declare-fun IsEquivocation (BoundSet) Bool)
(assert (not (=> (exists ((a BoundSet)) (exists ((b BoundSet)) (and (IsKeyTermOrPhrase a) (and (IsInArgument a b) (IsAmbiguous a))))) (exists ((c BoundSet)) (and (IsFallacy c) (IsEquivocation c))))))
(check-sat)
(get-model)